!uks bp86 6-31g* tightscf opt
!autoaux
!normalprint
!pal8

%scf
  maxiter 500
end

%geom
  maxiter 250
end

*xyzfile 0 3 benzene_0_1_bp86_6-31gpol.opt.xyz
