!uks bp86 6-31g* tightscf anfreq
!autoaux
!normalprint
!moread noiter

%moinp "benzene_0_1_bp86_6-31gpol.eopt.gbw"

%scf
  maxiter 500
end

*xyzfile 0 1 benzene_0_1_bp86_6-31gpol.eopt.xyz
