!uks b3lyp def2-svp tightscf opt
!normalprint

%scf
  maxiter 250
  brokensym 1,1
end

*xyz 0 3
C 0 0 0
H 0 0 1.0
H 0 1.0 0
*
