!rks b3lyp def2-svp tightscf opt
!normalprint

%scf
  maxiter 250
end

*xyz 0 1
C 0 0 0
H 0 0 1.0
H 0 1.0 0
*
