!uks bp86 6-31g* tightscf surfcrossopt kdiis
!autoaux
!normalprint
!pal8
!moread

%moinp "benzene_0_1_bp86_6-31gpol.eopt.gbw"

%scf
  maxiter 500
end

%geom
  maxiter 250
end

%mecp
  moinp "benzene_0_3_bp86_6-31gpol.opt.gbw"
  mult 3
end

*xyzfile 0 1 benzene_0_1_bp86_6-31gpol.eopt.xyz
