!uhf def2-svp tightscf
!normalprint

%scf
  maxiter 500
end

*xyz 0 4
N 0 0 0
*
