!uhf def2-svp tightscf 
!normalprint autoaux rijcosx uno
!moread noiter

%moinp "Mo-TAEA-NH3_0_2_UHF_def2-tzvpp_def2-svp.sp.uno"

%scf
  rotate {54,57,98} end
end

%basis
  newgto Mo "def2-tzvpp" end
end

*xyzfile 0 2 Mo-TAEA-NH3_0_2_bp86_lanl2dz_6-31gpol.opt.xyz
