!uks bp86 lanl2dz tightscf opt
!normalprint autoaux
!pal8

%scf
  maxiter 500
end

%basis
  newgto H "6-31g*" end
  newgto N "6-31g*" end
end

%geom
  constraints
    { c 1 c }
    { c 2 c }
    { c 3 c }
    { c 4 c }
    { c 5 c }
  end
end

*xyzfile 0 2 Mo-TAEA-NH3.xyz
