!qm/xtb rks wb97x d4 6-31g* tightscf 
!rijcosx autoaux
!normalprint
!pal8

%scf
  maxiter 500
end

%qmmm
  qmatoms { 0:11 } end
end

%tddft
  nroots 20
end

*xyzfile 0 1 C6H6--12C6H12_0_1_bp86_xtb_6-31gpol_RC-1-layer.optH.xyz

%geom
  fragments
    1 { 0:11 } end
    2 { 12:155 } end
  end
end
