!qm/xtb rks ri bp86 d4 6-31g* tightscf L-optH
!normalprint
!pal8

%scf
  maxiter 500
end

%qmmm
  qmatoms { 0:11 } end
end

*xyzfile 0 1 C6H6--12C6H12.xyz

%geom
  fragments
    1 { 0:11 } end
    2 { 12:155 } end
  end
end
