!uhf ma-def2-tzvpp tightscf

%paras
  rHeHe = 5,10,21
end

%scf
  maxiter 250
end

*int 0 1
he 0 0 0 0 0 0
he 1 0 0 {rHeHe} 0 0
*
