!uhf def2-qzvpp tightscf 
!normalprint

%scf
  maxiter 500
end

%maxcore 2000

*xyz 0 2
H 0 0 0 
*
