!uks pbe0 cc-pvtz zora tightscf
!moread

%moinp "au_0_2_R-nr.gbw"

*xyz 0 2
au 0 0 0
*

