!uks pbe0 cc-pvtz zora tightscf

*xyz 0 2
au 0 0 0
*

