!uks pbe0 cc-pvtz zora tightscf
!moread

%moinp "au_0_2_R-r.gbw"

*xyz 1 1
au 0 0 0
*

