!uks pbe0 cc-pvtz tightscf
!moread 

%moinp "au_0_2_R-nr.gbw"

*xyz 1 1
au 0 0 0
*

