!uks pbe0 cc-pvtz tightscf

%scf
  guess patom
end

*xyz 1 1
au 0 0 0
*

