!rks b3lyp def2-qzvpp tightscf soscf
!normalprint

%paras
  rHH [19.952623149688797 16.43574799372698 13.538761800225439 11.152402139117903 9.1866653175426 7.567411809920191 6.233570019315557 5.134832907437553 4.229760619613384 3.4842175435383975 2.870084854071569 2.3641999865500756 1.9474830399087562 1.6042171611153242 1.32145576997553 1.088534267260644 0.8966678097917788 0.7386199822079362 0.6084298690766428 0.5011872336272722]
end

%scf
  maxiter 500
end

*int 0 1
H 0 0 0 0 0 0
H 1 0 0 {rHH} 0 0
*
