!uks b3lyp def2-qzvpp tightscf 
!normalprint

%scf
  maxiter 500
end

*xyz 0 2
H 0 0 0 
*
