!rhf def2-svp tightscf
!normalprint

%paras
  rNN [0.501187233627272 0.6084298690766428 0.7386199822079362 0.8966678097917788 1.088534267260644 1.32145576997553 1.6042171611153242 1.9474830399087562 2.3641999865500756 2.870084854071569 3.4842175435383975 4.229760619613384 5.134832907437553 6.233570019315557 7.567411809920191 9.1866653175426 11.152402139117903 13.538761800225439 16.43574799372698 19.952623149688797]
end

%scf
  maxiter 500
end

%casscf
  nel 10
  norb 8
end

*int 0 1
N 0 0 0 0 0 0
N 1 0 0 {rNN} 0 0
*
